328
130
376
280
60
156
476
9
473
493
86
335
329
104
15
490
75
31
315
475
255
361
260
198
112
167
321
32
287
99
144
258
424
360
257
233
291
399
446
165
112
387
46
334
455
345
379
264
479
163
172
129
198
243
282
455
16
38
393
340
429
114
317
482
293
320
163
327
464
74
197
220
220
464
5
336
428
480
495
224
498
344
439
13
274
188
4
273
440
107
320
245
321
119
292
59
402
234
433
11
